c colouring generated by benchmark framework
p edge 25 160
v 1 4
v 2 0
v 3 6
v 4 5
v 5 1
v 6 5
v 7 1
v 8 2
v 9 3
v 10 0
v 11 2
v 12 3
v 13 0
v 14 1
v 15 4
v 16 0
v 17 5
v 18 4
v 19 2
v 20 6
v 21 6
v 22 2
v 23 1
v 24 0
v 25 3
